language ESSENCE' 1.0

letting fixed be 
[
    [9,3,0,0,5,0,0,0,0],
    [2,0,0,6,3,0,0,9,5],
    [8,5,6,0,0,2,0,0,0],
    [0,0,3,1,8,0,5,7,0],
    [0,0,5,0,2,0,9,8,0],
    [0,8,0,0,0,5,0,0,0],
    [0,0,0,8,0,0,1,5,9],
    [5,0,8,2,1,0,0,0,4],
    [0,0,0,5,6,0,0,0,8]
]